(declare-fun var0 () String)
(assert (RegexIn var0 (RegexConcat (RegexPlus (RegexStar (Str2Reg "FF"))) (RegexConcat (RegexUnion (RegexStar (Str2Reg "DDD")) (RegexStar (Str2Reg "EEE"))) (RegexConcat (RegexUnion (RegexStar (Str2Reg "B")) (RegexPlus (Str2Reg "C"))) (RegexConcat (RegexUnion (RegexPlus (Str2Reg "zzz")) (RegexPlus (Str2Reg "A"))) (RegexConcat (RegexPlus (RegexStar (Str2Reg "yy"))) (RegexConcat (RegexPlus (RegexStar (Str2Reg "x"))) (RegexConcat (RegexUnion (RegexPlus (Str2Reg "v")) (RegexPlus (Str2Reg "ww"))) (RegexConcat (RegexPlus (RegexPlus (Str2Reg "uu"))) (RegexConcat (RegexUnion (RegexPlus (Str2Reg "sss")) (RegexStar (Str2Reg "ttt"))) (RegexConcat (RegexStar (RegexUnion (Str2Reg "q") (Str2Reg "rr"))) (RegexConcat (RegexUnion (RegexPlus (Str2Reg "nnn")) (RegexUnion (Str2Reg "o") (Str2Reg "p"))) (RegexConcat (RegexPlus (RegexPlus (Str2Reg "m"))) (RegexConcat (RegexStar (RegexStar (Str2Reg "l"))) (RegexConcat (RegexStar (RegexUnion (Str2Reg "jj") (Str2Reg "kkk"))) (RegexConcat (RegexUnion (RegexStar (Str2Reg "hhh")) (RegexStar (Str2Reg "ii"))) (RegexConcat (RegexPlus (RegexStar (Str2Reg "ggg"))) (RegexConcat (RegexStar (RegexUnion (Str2Reg "e") (Str2Reg "ff"))) (RegexConcat (RegexUnion (RegexUnion (Str2Reg "a") (Str2Reg "b")) (RegexUnion (Str2Reg "c") (Str2Reg "ddd"))) (RegexConcat (RegexStar (RegexPlus (Str2Reg "9"))) (RegexConcat (RegexPlus (RegexPlus (Str2Reg "888"))) (RegexConcat (RegexStar (RegexUnion (Str2Reg "6") (Str2Reg "777"))) (RegexConcat (RegexStar (RegexPlus (Str2Reg "555"))) (RegexConcat (RegexStar (RegexStar (Str2Reg "444"))) (RegexConcat (RegexUnion (RegexUnion (Str2Reg "1") (Str2Reg "222")) (RegexPlus (Str2Reg "3"))) (RegexPlus (RegexPlus (Str2Reg "0")))))))))))))))))))))))))))))
(check-sat)